Test: battleship-14-27-sat.cnf
Options: -no-inverting-opt -activity-nl-freq=1
WARNING: for repeatability, setting FPU to use double precision
============================[ Problem Statistics ]=============================
|                                                                             |
|  Number of symmetries:           19                                         |
|  Number of invertingSyms:         0                                         |
|  Number of variables:           378                                         |
|  Number of clauses:            2653                                         |
|  Parse time:                   0.00 s                                       |
|                                                                             |
============================[ Search Statistics ]==============================
| Conflicts |          ORIGINAL         |          LEARNT          | Progress |
|           |    Vars  Clauses Literals |    Limit  Clauses Lit/Cl |          |
===============================================================================
|       100 |     378     2653    10206 |      972      100    127 |  0.001 % |
|       250 |     378     2653    10206 |     1070      270    118 |  0.001 % |
|       475 |     378     2653    10206 |     1177      545    125 |  0.001 % |
|       812 |     378     2653    10206 |     1294      991    127 |  0.001 % |
|      1318 |     378     2653    10206 |     1424      907    127 |  0.001 % |
|      2077 |     378     2653    10206 |     1566     1186    134 |  0.001 % |
|      3216 |     378     2653    10206 |     1723     1016    142 |  0.001 % |
|      4924 |     378     2653    10206 |     1895     1453    154 |  0.001 % |
|      7486 |     378     2653    10206 |     2085     1733    161 |  0.001 % |
|     11330 |     378     2653    10206 |     2293     1275    147 |  0.001 % |
|     17096 |     378     2653    10206 |     2523     1533    167 |  0.001 % |
|     25745 |     378     2653    10206 |     2775     2395    176 |  0.001 % |
|     38719 |     378     2653    10206 |     3052     1827    159 |  0.001 % |
|     58180 |     378     2653    10206 |     3358     2076    174 |  0.001 % |
|     87372 |     378     2653    10206 |     3694     2945    161 |  0.001 % |
|    131161 |     378     2653    10206 |     4063     3890    157 |  0.001 % |
|    196845 |     378     2653    10206 |     4469     3086    165 |  0.001 % |
|    295371 |     378     2653    10206 |     4916     4474    168 |  0.001 % |
|    443160 |     378     2653    10206 |     5408     2903    152 |  0.001 % |
===============================================================================
restarts              : 1023
conflicts             : 486412         (15192 /sec)
symconflicts          : 35078          (1096 /sec)
decisions             : 1022156        (0.00 % random) (31924 /sec)
propagations          : 10376534       (324084 /sec)
sympropagations       : 143650         (4487 /sec)
conflict literals     : 82316432       (4.53 % deleted)
literals     : 82316432       (4.53 % deleted)

HEURISTIC USAGES
random                : 0           
activity w/ lookahead : 0           
activity no lookahead : 1022155     
original sp           : 0           
sym count             : 0           

Memory used           : 16.00 MB
CPU time              : 32.018 s

SATISFIABLE
